objective value:                      12329.000001192
t_x_2                                               1 	(obj:27)
t_x_4                                               1 	(obj:36)
t_x_10                                              1 	(obj:35)
t_x_13                                              1 	(obj:39)
t_x_16                                              1 	(obj:9)
t_x_20                                              1 	(obj:11)
t_x_25                                              1 	(obj:8)
t_x_26                                              1 	(obj:14)
t_x_28                                              1 	(obj:56)
t_x_33                                              1 	(obj:7)
t_x_36                                              1 	(obj:13)
t_x_38                                              1 	(obj:23)
t_x_39                                              1 	(obj:18)
t_x_41                                              1 	(obj:37)
t_x_42                                              1 	(obj:14)
t_x_44                                              1 	(obj:18)
t_x_47                                              1 	(obj:0)
t_x_53                                              1 	(obj:18)
t_x_55                                              1 	(obj:3)
t_x_56                                              1 	(obj:48)
t_x_57                                              1 	(obj:12)
t_x_58                                              1 	(obj:35)
t_x_61                                              1 	(obj:0)
t_x_65                                              1 	(obj:50)
t_x_66                                              1 	(obj:6)
t_x_67                                              1 	(obj:32)
t_x_69                                              1 	(obj:1)
t_x_71                                              1 	(obj:6)
t_x_72                                              1 	(obj:50)
t_x_73                                              1 	(obj:33)
t_x_74                                              1 	(obj:31)
t_x_75                                              1 	(obj:21)
t_x_78                                              1 	(obj:77)
t_x_82                                              1 	(obj:33)
t_x_88                                              1 	(obj:9)
t_x_89                                              1 	(obj:29)
t_x_94                                              1 	(obj:13)
t_x_95                                              1 	(obj:35)
t_x_97                                              1 	(obj:7)
t_x_105                                             1 	(obj:1)
t_x_107                                             1 	(obj:12)
t_x_109                          7.01174577011354e-08 	(obj:17)
t_x_110                                             1 	(obj:11)
t_x_113                                             1 	(obj:4)
t_x_116                                             1 	(obj:0)
t_x_117                                             1 	(obj:6)
t_x_125                                             1 	(obj:5)
t_x_128                                             1 	(obj:4)
t_x_129                                             1 	(obj:14)
t_x_131                                             1 	(obj:0)
t_x_143                                             1 	(obj:25)
t_x_147                                             1 	(obj:28)
t_x_150                                             1 	(obj:51)
t_x_153                                             1 	(obj:12)
t_x_155                                             1 	(obj:15)
t_x_161                                             1 	(obj:7)
t_x_162                                             1 	(obj:14)
t_x_163                                             1 	(obj:2)
t_x_165                                             1 	(obj:36)
t_x_168                                             1 	(obj:8)
t_x_172                                             1 	(obj:14)
t_x_174                                             1 	(obj:38)
t_x_176                                             1 	(obj:15)
t_x_181                                             1 	(obj:37)
t_x_184                                             1 	(obj:15)
t_x_189                                             1 	(obj:11)
t_x_190                                             1 	(obj:12)
t_x_193                                             1 	(obj:55)
t_x_199                                             1 	(obj:16)
t_x_205                                             1 	(obj:15)
t_x_206                                             1 	(obj:30)
t_x_209                                             1 	(obj:0)
t_x_211                                             1 	(obj:19)
t_x_214                                             1 	(obj:22)
t_x_215                                             1 	(obj:43)
t_x_218                                             1 	(obj:2)
t_x_220                                             1 	(obj:4)
t_x_221                                             1 	(obj:14)
t_x_228                                             1 	(obj:18)
t_x_229                                             1 	(obj:13)
t_x_233                                             1 	(obj:48)
t_x_239                                             1 	(obj:1)
t_x_240                                             1 	(obj:13)
t_x_249                                             1 	(obj:30)
t_x_250                                             1 	(obj:19)
t_x_254                                             1 	(obj:5)
t_x_256                                             1 	(obj:1)
t_x_260                                             1 	(obj:15)
t_x_264                                             1 	(obj:18)
t_x_270                                             1 	(obj:9)
t_x_271                                             1 	(obj:15)
t_x_283                                             1 	(obj:36)
t_x_284                                             1 	(obj:10)
t_x_286                                             1 	(obj:5)
t_x_289                                             1 	(obj:4)
t_x_290                                             1 	(obj:29)
t_x_292                                             1 	(obj:8)
t_x_294                                             1 	(obj:18)
t_x_295                                             1 	(obj:34)
t_x_300                                             1 	(obj:1)
t_x_301                                             1 	(obj:23)
t_x_304                                             1 	(obj:21)
t_x_306                                             1 	(obj:7)
t_x_309                                             1 	(obj:0)
t_x_310                                             1 	(obj:3)
t_x_311                                             1 	(obj:17)
t_x_314                                             1 	(obj:35)
t_x_319                                             1 	(obj:23)
t_x_324                                             1 	(obj:24)
t_x_325                                             1 	(obj:6)
t_x_327                                             1 	(obj:5)
t_x_333                                             1 	(obj:38)
t_x_336                                             1 	(obj:10)
t_x_338                                             1 	(obj:24)
t_x_339                                             1 	(obj:32)
t_x_341                                             1 	(obj:7)
t_x_342                                             1 	(obj:30)
t_x_350                                             1 	(obj:17)
t_x_352                                             1 	(obj:9)
t_x_353                                             1 	(obj:3)
t_x_357                                             1 	(obj:14)
t_x_362                                             1 	(obj:1)
t_x_363                                             1 	(obj:30)
t_x_367                                             1 	(obj:1)
t_x_368                                             1 	(obj:4)
t_x_375                                             1 	(obj:18)
t_x_381                                             1 	(obj:5)
t_x_382                                             1 	(obj:8)
t_x_385                                             1 	(obj:8)
t_x_386                                             1 	(obj:49)
t_x_387                                             1 	(obj:25)
t_x_390                                             1 	(obj:1)
t_x_391                                             1 	(obj:3)
t_x_394                                             1 	(obj:18)
t_x_395                                             1 	(obj:17)
t_x_396                                             1 	(obj:21)
t_x_406                                             1 	(obj:1)
t_x_407                                             1 	(obj:26)
t_x_409                                             1 	(obj:4)
t_x_411                                             1 	(obj:29)
t_x_412                                             1 	(obj:4)
t_x_425                                             1 	(obj:62)
t_x_426                                             1 	(obj:33)
t_x_431                                             1 	(obj:4)
t_x_437                                             1 	(obj:38)
t_x_438                                             1 	(obj:16)
t_x_441                                             1 	(obj:0)
t_x_442                                             1 	(obj:6)
t_x_447                                             1 	(obj:19)
t_x_451                                             1 	(obj:15)
t_x_456                                             1 	(obj:47)
t_x_461                                             1 	(obj:26)
t_x_462                                             1 	(obj:6)
t_x_465                                             1 	(obj:0)
t_x_466                                             1 	(obj:14)
t_x_468                                             1 	(obj:45)
t_x_470                                             1 	(obj:4)
t_x_474                                             1 	(obj:0)
t_x_477                                             1 	(obj:43)
t_x_479                                             1 	(obj:9)
t_x_480                                             1 	(obj:39)
t_x_481                                             1 	(obj:42)
t_x_491                                             1 	(obj:4)
t_x_493                                             1 	(obj:21)
t_x_494                                             1 	(obj:58)
t_x_498                                             1 	(obj:10)
t_x_501                                             1 	(obj:23)
t_x_507                                             1 	(obj:11)
t_x_512                                             1 	(obj:0)
t_x_513                                             1 	(obj:39)
t_x_517                                             1 	(obj:3)
t_x_518                                             1 	(obj:4)
t_x_523                                             1 	(obj:31)
t_x_526                                             1 	(obj:3)
t_x_529                                             1 	(obj:16)
t_x_533                                             1 	(obj:6)
t_x_535                                             1 	(obj:27)
t_x_543                                             1 	(obj:5)
t_x_544                                             1 	(obj:43)
t_x_545                                             1 	(obj:30)
t_x_547                                             1 	(obj:15)
t_x_548                                             1 	(obj:36)
t_x_557                                             1 	(obj:1)
t_x_558                                             1 	(obj:26)
t_x_561                                             1 	(obj:15)
t_x_562                                             1 	(obj:9)
t_x_566                                             1 	(obj:26)
t_x_569                                             1 	(obj:16)
t_x_571                                             1 	(obj:13)
t_x_572                                             1 	(obj:12)
t_x_573                                             1 	(obj:15)
t_x_575                                             1 	(obj:13)
t_x_578                                             1 	(obj:49)
t_x_580                                             1 	(obj:5)
t_x_582                                             1 	(obj:24)
t_x_583                                             1 	(obj:1)
t_x_584                                             1 	(obj:4)
t_x_587                                             1 	(obj:36)
t_x_590                                             1 	(obj:21)
t_x_594                                             1 	(obj:75)
t_x_598                                             1 	(obj:17)
t_x_599                                             1 	(obj:0)
t_x_600                                             1 	(obj:47)
t_x_606                                             1 	(obj:15)
t_x_608                                             1 	(obj:6)
t_x_614                                             1 	(obj:0)
t_x_617                                             1 	(obj:5)
t_x_620                                             1 	(obj:1)
t_x_624                                             1 	(obj:11)
t_x_625                                             1 	(obj:3)
t_x_626                                             1 	(obj:0)
t_x_629                                             1 	(obj:3)
t_x_631                                             1 	(obj:8)
t_x_632                                             1 	(obj:60)
t_x_634                                             1 	(obj:11)
t_x_639                                             1 	(obj:23)
t_x_642                                             1 	(obj:23)
t_x_646                                             1 	(obj:31)
t_x_652                                             1 	(obj:11)
t_x_656                                             1 	(obj:4)
t_x_657                                             1 	(obj:3)
t_x_659                                             1 	(obj:35)
t_x_660                                             1 	(obj:8)
t_x_662                                             1 	(obj:6)
t_x_663                                             1 	(obj:25)
t_x_664                                             1 	(obj:18)
t_x_665                                             1 	(obj:30)
t_x_668                                             1 	(obj:0)
t_x_675                                             1 	(obj:29)
t_x_676                                             1 	(obj:21)
t_x_681                                             1 	(obj:29)
t_x_689                                             1 	(obj:12)
t_x_694                                             1 	(obj:42)
t_x_703                                             1 	(obj:3)
t_x_707                                             1 	(obj:97)
t_x_710                                             1 	(obj:5)
t_x_711                                             1 	(obj:27)
t_x_715                                             1 	(obj:49)
t_x_718                                             1 	(obj:21)
t_x_731                                             1 	(obj:13)
t_x_732                                             1 	(obj:36)
t_x_734                                             1 	(obj:7)
t_x_738                                             1 	(obj:23)
t_x_742                                             1 	(obj:47)
t_x_752                                             1 	(obj:38)
t_x_754                                             1 	(obj:8)
t_x_755                                             1 	(obj:16)
t_x_759                                             1 	(obj:3)
t_x_775                                             1 	(obj:10)
t_x_782                                             1 	(obj:16)
t_x_785                                             1 	(obj:29)
t_x_788                                             1 	(obj:43)
t_x_791                                             1 	(obj:1)
t_x_793                                             1 	(obj:10)
t_x_794                                             1 	(obj:30)
t_x_796                                             1 	(obj:7)
t_x_808                                             1 	(obj:11)
t_x_819                                             1 	(obj:45)
t_x_822                                             1 	(obj:11)
t_x_823                                             1 	(obj:21)
t_x_826                                             1 	(obj:5)
t_x_828                                             1 	(obj:55)
t_x_831                                             1 	(obj:2)
t_x_832                                             1 	(obj:7)
t_x_837                                             1 	(obj:39)
t_x_841                                             1 	(obj:20)
t_x_844                                             1 	(obj:13)
t_x_845                                             1 	(obj:20)
t_x_847                                             1 	(obj:12)
t_x_852                                             1 	(obj:41)
t_x_857                                             1 	(obj:19)
t_x_866                                             1 	(obj:3)
t_x_869                                             1 	(obj:41)
t_x_871                                             1 	(obj:33)
t_x_873                                             1 	(obj:5)
t_x_874                                             1 	(obj:20)
t_x_877                                             1 	(obj:1)
t_x_886                                             1 	(obj:22)
t_x_890                                             1 	(obj:13)
t_x_891                                             1 	(obj:18)
t_x_893                                             1 	(obj:29)
t_x_898                                             1 	(obj:3)
t_x_901                                             1 	(obj:43)
t_x_906                                             1 	(obj:38)
t_x_912                                             1 	(obj:20)
t_x_919                                             1 	(obj:27)
t_x_920                                             1 	(obj:2)
t_x_921                                             1 	(obj:46)
t_x_922                                             1 	(obj:10)
t_x_923                                             1 	(obj:38)
t_x_926                                             1 	(obj:1)
t_x_930                                             1 	(obj:40)
t_x_935                                             1 	(obj:37)
t_x_937                                             1 	(obj:38)
t_x_939                                             1 	(obj:39)
t_x_947                                             1 	(obj:5)
t_x_953                                             1 	(obj:21)
t_x_954                                             1 	(obj:11)
t_x_959                                             1 	(obj:48)
t_x_961                                             1 	(obj:42)
t_x_963                                             1 	(obj:21)
t_x_964                                             1 	(obj:20)
t_x_966                                             1 	(obj:47)
t_x_967                                             1 	(obj:27)
t_x_970                                             1 	(obj:7)
t_x_975                                             1 	(obj:25)
t_x_984                                             1 	(obj:19)
t_x_988                                             1 	(obj:29)
t_x_990                                             1 	(obj:36)
t_x_992                                             1 	(obj:5)
t_x_996                                             1 	(obj:30)
t_x_1000                                            1 	(obj:8)
t_x_1003                                            1 	(obj:8)
t_x_1012                                            1 	(obj:43)
t_x_1013                                            1 	(obj:31)
t_x_1014                                            1 	(obj:18)
t_x_1016                                            1 	(obj:9)
t_x_1022                                            1 	(obj:16)
t_x_1025                                            1 	(obj:11)
t_x_1028                                            1 	(obj:39)
t_x_1032                                            1 	(obj:0)
t_x_1033                                            1 	(obj:7)
t_x_1034                                            1 	(obj:21)
t_x_1036                                            1 	(obj:16)
t_x_1039                                            1 	(obj:5)
t_x_1043                                            1 	(obj:45)
t_x_1045                                            1 	(obj:0)
t_x_1058                                            1 	(obj:10)
t_x_1059                                            1 	(obj:42)
t_x_1062                                            1 	(obj:4)
t_x_1066                                            1 	(obj:35)
t_x_1068                                            1 	(obj:18)
t_x_1069                                            1 	(obj:11)
t_x_1073                                            1 	(obj:14)
t_x_1077                                            1 	(obj:43)
t_x_1080                                            1 	(obj:40)
t_x_1081                                            1 	(obj:36)
t_x_1082                                            1 	(obj:28)
t_x_1083                                            1 	(obj:6)
t_x_1088                                            1 	(obj:0)
t_x_1090                                            1 	(obj:32)
t_x_1092                                            1 	(obj:67)
t_x_1096                                            1 	(obj:18)
t_x_1099                                            1 	(obj:20)
t_x_1100                                            1 	(obj:10)
t_x_1106                                            1 	(obj:8)
t_x_1108                                            1 	(obj:12)
t_x_1109                                            1 	(obj:12)
t_x_1113                                            1 	(obj:32)
t_x_1114                                            1 	(obj:41)
t_x_1115                                            1 	(obj:36)
t_x_1116                                            1 	(obj:28)
t_x_1119                                            1 	(obj:26)
t_x_1120                                            1 	(obj:48)
t_x_1121                                            1 	(obj:5)
t_x_1124                                            1 	(obj:19)
t_x_1127                                            1 	(obj:57)
t_x_1128                                            1 	(obj:22)
t_x_1136                                            1 	(obj:20)
t_x_1141                                            1 	(obj:14)
t_x_1142                                            1 	(obj:13)
t_x_1153                                            1 	(obj:28)
t_x_1154                                            1 	(obj:5)
t_x_1155                                            1 	(obj:16)
t_x_1160                                            1 	(obj:18)
t_x_1163                                            1 	(obj:17)
t_x_1172                                            1 	(obj:8)
t_x_1178                                            1 	(obj:41)
t_x_1181                                            1 	(obj:22)
t_x_1186                                            1 	(obj:5)
t_x_1188                                            1 	(obj:29)
t_x_1195                                            1 	(obj:2)
t_x_1197                                            1 	(obj:11)
t_x_1198                                            1 	(obj:33)
t_x_1203                                            1 	(obj:22)
t_x_1218                                            1 	(obj:4)
t_x_1221                                            1 	(obj:3)
t_x_1223                                            1 	(obj:16)
t_x_1225                                            1 	(obj:15)
t_x_1226                                            1 	(obj:46)
t_x_1229                                            1 	(obj:27)
t_x_1230                                            1 	(obj:51)
t_x_1236                                            1 	(obj:5)
t_x_1238                                            1 	(obj:26)
t_x_1242                                            1 	(obj:12)
t_x_1243                                            1 	(obj:52)
t_x_1245                                            1 	(obj:45)
t_x_1247                                            1 	(obj:2)
t_x_1248                                            1 	(obj:29)
t_x_1254                                            1 	(obj:11)
t_x_1259                                            1 	(obj:11)
t_x_1261                                            1 	(obj:2)
t_x_1262                                            1 	(obj:6)
t_x_1263                                            1 	(obj:5)
t_x_1265                                            1 	(obj:9)
t_x_1266                                            1 	(obj:7)
t_x_1272                                            1 	(obj:50)
t_x_1277                                            1 	(obj:8)
t_x_1279                                            1 	(obj:22)
t_x_1284                                            1 	(obj:7)
t_x_1287                                            1 	(obj:16)
t_x_1289                                            1 	(obj:20)
t_x_1294                                            1 	(obj:3)
t_x_1295                                            1 	(obj:3)
t_x_1299                                            1 	(obj:3)
t_x_1307                                            1 	(obj:23)
t_x_1310                                            1 	(obj:50)
t_x_1313                                            1 	(obj:72)
t_x_1314                                            1 	(obj:7)
t_x_1318                                            1 	(obj:2)
t_x_1320                                            1 	(obj:40)
t_x_1321                                            1 	(obj:40)
t_x_1322                                            1 	(obj:38)
t_x_1323                                            1 	(obj:37)
t_x_1325                                            1 	(obj:13)
t_x_1333                                            1 	(obj:3)
t_x_1335                                            1 	(obj:14)
t_x_1336                                            1 	(obj:3)
t_x_1339                                            1 	(obj:8)
t_x_1340                                            1 	(obj:17)
t_x_1346                                            1 	(obj:0)
t_x_1359                                            1 	(obj:19)
t_x_1368                                            1 	(obj:41)
t_x_1371                                            1 	(obj:20)
t_x_1374                                            1 	(obj:23)
t_x_1375                                            1 	(obj:51)
t_x_1379                                            1 	(obj:11)
t_x_1391                                            1 	(obj:28)
t_x_1396                                            1 	(obj:19)
t_x_1397                                            1 	(obj:24)
t_x_1402                                            1 	(obj:0)
t_x_1404                                            1 	(obj:54)
t_x_1408                                            1 	(obj:20)
t_x_1409                                            1 	(obj:16)
t_x_1411                                            1 	(obj:53)
t_x_1420                                            1 	(obj:24)
t_x_1423                                            1 	(obj:29)
t_x_1425                                            1 	(obj:14)
t_x_1426                                            1 	(obj:8)
t_x_1427                                            1 	(obj:3)
t_x_1428                                            1 	(obj:1)
t_x_1431                                            1 	(obj:5)
t_x_1436                                            1 	(obj:8)
t_x_1442                                            1 	(obj:6)
t_x_1443                                            1 	(obj:0)
t_x_1450                                            1 	(obj:25)
t_x_1463                                            1 	(obj:16)
t_x_1467                                            1 	(obj:48)
t_x_1468                                            1 	(obj:3)
t_x_1471                                            1 	(obj:19)
t_x_1479                                            1 	(obj:32)
t_x_1486                                            1 	(obj:19)
t_x_1489                                            1 	(obj:25)
t_x_1506                                            1 	(obj:8)
t_x_1507                                            1 	(obj:16)
t_x_1510                                            1 	(obj:41)
t_x_1517                                            1 	(obj:17)
t_x_1518                                            1 	(obj:19)
t_x_1520                                            1 	(obj:19)
t_x_1535                                            1 	(obj:7)
t_x_1536                                            1 	(obj:11)
t_x_1538                                            1 	(obj:8)
t_x_1539                                            1 	(obj:41)
t_x_1544                                            1 	(obj:41)
t_x_1545                                            1 	(obj:21)
t_x_1547                                            1 	(obj:13)
t_x_1548                                            1 	(obj:28)
t_x_1552                                            1 	(obj:53)
t_x_1558                                            1 	(obj:8)
t_x_1561                                            1 	(obj:1)
t_x_1562                                            1 	(obj:22)
t_x_1565                                            1 	(obj:18)
t_x_1568                                            1 	(obj:17)
t_x_1569                                            1 	(obj:11)
t_x_1572                                            1 	(obj:34)
t_x_1577                                            1 	(obj:9)
t_x_1578                                            1 	(obj:12)
t_x_1582                                            1 	(obj:20)
t_x_1583                                            1 	(obj:2)
t_x_1585                                            1 	(obj:0)
t_x_1589                                            1 	(obj:42)
t_x_1592                                            1 	(obj:14)
t_x_1594                                            1 	(obj:16)
t_x_1597                                            1 	(obj:17)
t_x_1598                                            1 	(obj:34)
t_x_1600                                            1 	(obj:7)
t_x_1604                                            1 	(obj:8)
t_x_1605                                            1 	(obj:16)
t_x_1608                                            1 	(obj:46)
t_x_1610                                            1 	(obj:16)
t_x_1611                                            1 	(obj:13)
t_x_1613                                            1 	(obj:16)
t_x_1617                                            1 	(obj:5)
t_x_1620                                            1 	(obj:17)
t_x_1621                                            1 	(obj:18)
t_x_1627                                            1 	(obj:22)
t_x_1631                                            1 	(obj:10)
t_x_1632                                            1 	(obj:20)
t_x_1636                                            1 	(obj:36)
t_x_1637                                            1 	(obj:14)
t_x_1642                                            1 	(obj:25)
t_x_1643                                            1 	(obj:4)
t_x_1648                                            1 	(obj:33)
t_x_1650                                            1 	(obj:23)
t_x_1652                                            1 	(obj:4)
t_x_1653                                            1 	(obj:61)
t_x_1655                                            1 	(obj:25)
t_x_1661                                            1 	(obj:6)
t_x_1669                                            1 	(obj:5)
t_x_1673                                            1 	(obj:58)
t_x_1674                                            1 	(obj:30)
t_x_1679                                            1 	(obj:40)
t_x_1680                                            1 	(obj:28)
t_x_1683                                            1 	(obj:42)
t_x_1685                                            1 	(obj:6)
t_x_1686                                            1 	(obj:33)
t_x_1691                                            1 	(obj:29)
t_x_1692                                            1 	(obj:58)
t_x_1694                                            1 	(obj:5)
t_x_1696                                            1 	(obj:10)
t_x_1698                                            1 	(obj:43)
t_x_1701                                            1 	(obj:4)
t_x_1704                                            1 	(obj:19)
t_x_1714                                            1 	(obj:0)
t_x_1717                                            1 	(obj:7)
t_x_1721                                            1 	(obj:6)
t_x_1723                                            1 	(obj:10)
t_x_1724                                            1 	(obj:1)
t_x_1726                                            1 	(obj:6)
t_x_1727                                            1 	(obj:1)
t_x_1728                                            1 	(obj:34)
t_x_1736                                            1 	(obj:49)
t_x_1740                                            1 	(obj:10)
t_x_1741                                            1 	(obj:15)
t_x_1743                                            1 	(obj:5)
t_x_1744                                            1 	(obj:42)
t_x_1748                                            1 	(obj:54)
t_x_1752                                            1 	(obj:63)
t_x_1757                                            1 	(obj:6)
t_x_1760                                            1 	(obj:16)
t_x_1762                                            1 	(obj:29)
t_x_1766                                            1 	(obj:29)
t_x_1770                                            1 	(obj:29)
t_x_1772                                            1 	(obj:6)
t_x_1773                                            1 	(obj:1)
t_x_1774                                            1 	(obj:5)
t_x_1780                                            1 	(obj:25)
t_x_1781                                            1 	(obj:30)
t_x_1783                                            1 	(obj:4)
t_x_1784                                            1 	(obj:10)
t_x_1787                                            1 	(obj:24)
t_x_1789                                            1 	(obj:55)
t_x_1790                                            1 	(obj:9)
t_x_1793                                            1 	(obj:12)
t_x_1795                                            1 	(obj:11)
t_x_1797                                            1 	(obj:1)
t_x_1804                                            1 	(obj:44)
t_x_1806                                            1 	(obj:19)
t_x_1807                                            1 	(obj:88)
t_x_1810                                            1 	(obj:1)
t_x_1811                                            1 	(obj:48)
t_x_1812                                            1 	(obj:9)
t_x_1813                                            1 	(obj:1)
t_x_1815                                            1 	(obj:14)
t_x_1817                                            1 	(obj:16)
t_x_1824                                            1 	(obj:14)
t_x_1828                                            1 	(obj:28)
t_x_1831                                            1 	(obj:27)
t_x_1832                                            1 	(obj:21)
t_x_1838                                            1 	(obj:20)
t_x_1839                                            1 	(obj:15)
t_x_1840                                            1 	(obj:20)
t_x_1855                                            1 	(obj:8)
t_x_1856                                            1 	(obj:0)
t_x_1857                                            1 	(obj:4)
t_x_1858                                            1 	(obj:10)
t_x_1860                                            1 	(obj:69)
t_x_1865                                            1 	(obj:44)
t_x_1870                                            1 	(obj:2)
t_x_1875                                            1 	(obj:17)
t_x_1884                                            1 	(obj:4)
t_x_1889                                            1 	(obj:14)
t_x_1891                                            1 	(obj:6)
t_x_1892                                            1 	(obj:20)
t_x_1894                                            1 	(obj:19)
t_x_1898                                            1 	(obj:23)
t_x_1899                                            1 	(obj:65)
t_x_1900                                            1 	(obj:0)
t_x_1905                                            1 	(obj:26)
t_x_1907                                            1 	(obj:14)
t_x_1916                                            1 	(obj:41)
t_x_1917                                            1 	(obj:5)
t_x_1918                                            1 	(obj:4)
t_x_1924                                            1 	(obj:15)
t_x_1929                                            1 	(obj:23)
t_x_1930                                            1 	(obj:22)
t_x_1931                                            1 	(obj:35)
t_x_1933                                            1 	(obj:5)
t_x_1935                                            1 	(obj:26)
t_x_1936                                            1 	(obj:18)
t_x_1940                                            1 	(obj:22)
t_x_1942                                            1 	(obj:2)
t_x_1943                                            1 	(obj:13)
t_x_1945                                            1 	(obj:8)
t_x_1946                                            1 	(obj:3)
t_x_1958                                            1 	(obj:15)
t_x_1962                                            1 	(obj:71)
t_x_1964                                            1 	(obj:26)
t_x_1977                                            1 	(obj:99)
t_x_1980                                            1 	(obj:29)
t_x_1983                                            1 	(obj:5)
t_x_1985                                            1 	(obj:2)
t_x_1993                                            1 	(obj:36)
t_x_1995                                            1 	(obj:13)
